(set-info :smt-lib-version 2.6)
(set-logic QF_NIA)
(set-info :source |
     Constraint systems stating that a matrix interpretation is
     compatible with a rewriting system (weakly compatible with
     all rules, strictly compatible with at least one).

     Contributed by Johannes Waldmann at HTKW Leipzig.
   |)
(set-info :category "crafted")
(set-info :status sat)
(declare-fun n0 () Int)
(assert (>= n0 0))
(declare-fun n1 () Int)
(assert (>= n1 0))
(assert (>= n1 1))
(declare-fun n2 () Int)
(assert (>= n2 0))
(declare-fun n3 () Int)
(assert (>= n3 0))
(assert (>= n3 1))
(declare-fun n4 () Int)
(assert (>= n4 0))
(declare-fun n5 () Int)
(assert (>= n5 0))
(assert (>= n5 1))
(declare-fun n6 () Int)
(assert (>= n6 0))
(declare-fun n7 () Int)
(assert (>= n7 0))
(assert (>= n7 1))
(declare-fun n8 () Int)
(assert (>= n8 0))
(declare-fun n9 () Int)
(assert (>= n9 0))
(assert (>= n9 1))
(declare-fun n10 () Int)
(assert (>= n10 0))
(declare-fun n11 () Int)
(assert (>= n11 0))
(assert (>= n11 1))
(declare-fun n12 () Int)
(assert (>= n12 0))
(declare-fun n13 () Int)
(assert (>= n13 0))
(assert (>= n13 1))
(declare-fun n14 () Int)
(assert (>= n14 0))
(declare-fun n15 () Int)
(assert (>= n15 0))
(assert (>= n15 1))
(declare-fun n16 () Int)
(assert (= n16 (* n13 n0)))
(declare-fun n17 () Int)
(assert (= n17 (+ n12 n16)))
(declare-fun n18 () Int)
(assert (= n18 (* n13 n1)))
(declare-fun n19 () Int)
(assert (= n19 (* n1 n4)))
(declare-fun n20 () Int)
(assert (= n20 (+ n0 n19)))
(declare-fun n21 () Int)
(assert (= n21 (* n1 n5)))
(declare-fun n22 () Int)
(assert (= n22 (* n15 n2)))
(declare-fun n23 () Int)
(assert (= n23 (+ n14 n22)))
(declare-fun n24 () Int)
(assert (= n24 (* n15 n3)))
(declare-fun n25 () Int)
(assert (= n25 (* n9 n0)))
(declare-fun n26 () Int)
(assert (= n26 (+ n8 n25)))
(declare-fun n27 () Int)
(assert (= n27 (* n9 n1)))
(declare-fun n28 () Int)
(assert (= n28 (* n1 n8)))
(declare-fun n29 () Int)
(assert (= n29 (+ n0 n28)))
(declare-fun n30 () Int)
(assert (= n30 (* n1 n9)))
(assert (>= n26 n29))
(assert (>= n27 n30))
(declare-fun n31 () Int)
(assert (= n31 (* n9 n2)))
(declare-fun n32 () Int)
(assert (= n32 (+ n8 n31)))
(declare-fun n33 () Int)
(assert (= n33 (* n9 n3)))
(declare-fun n34 () Int)
(assert (= n34 (* n3 n8)))
(declare-fun n35 () Int)
(assert (= n35 (+ n2 n34)))
(declare-fun n36 () Int)
(assert (= n36 (* n3 n9)))
(assert (>= n32 n35))
(assert (>= n33 n36))
(declare-fun n37 () Int)
(assert (= n37 (* n9 n6)))
(declare-fun n38 () Int)
(assert (= n38 (+ n8 n37)))
(declare-fun n39 () Int)
(assert (= n39 (* n9 n7)))
(declare-fun n40 () Int)
(assert (= n40 (* n7 n8)))
(declare-fun n41 () Int)
(assert (= n41 (+ n6 n40)))
(declare-fun n42 () Int)
(assert (= n42 (* n7 n9)))
(assert (>= n38 n41))
(assert (>= n39 n42))
(declare-fun n43 () Int)
(assert (= n43 (* n11 n0)))
(declare-fun n44 () Int)
(assert (= n44 (+ n10 n43)))
(declare-fun n45 () Int)
(assert (= n45 (* n11 n1)))
(declare-fun n46 () Int)
(assert (= n46 (* n1 n10)))
(declare-fun n47 () Int)
(assert (= n47 (+ n0 n46)))
(declare-fun n48 () Int)
(assert (= n48 (* n1 n11)))
(assert (>= n44 n47))
(assert (>= n45 n48))
(declare-fun n49 () Int)
(assert (= n49 (* n11 n2)))
(declare-fun n50 () Int)
(assert (= n50 (+ n10 n49)))
(declare-fun n51 () Int)
(assert (= n51 (* n11 n3)))
(declare-fun n52 () Int)
(assert (= n52 (* n3 n10)))
(declare-fun n53 () Int)
(assert (= n53 (+ n2 n52)))
(declare-fun n54 () Int)
(assert (= n54 (* n3 n11)))
(assert (>= n50 n53))
(assert (>= n51 n54))
(declare-fun n55 () Int)
(assert (= n55 (* n11 n6)))
(declare-fun n56 () Int)
(assert (= n56 (+ n10 n55)))
(declare-fun n57 () Int)
(assert (= n57 (* n11 n7)))
(declare-fun n58 () Int)
(assert (= n58 (* n7 n10)))
(declare-fun n59 () Int)
(assert (= n59 (+ n6 n58)))
(declare-fun n60 () Int)
(assert (= n60 (* n7 n11)))
(assert (>= n56 n59))
(assert (>= n57 n60))
(declare-fun n61 () Int)
(assert (= n61 (* n9 n4)))
(declare-fun n62 () Int)
(assert (= n62 (+ n8 n61)))
(declare-fun n63 () Int)
(assert (= n63 (* n9 n5)))
(declare-fun n64 () Int)
(assert (= n64 (* n15 n20)))
(declare-fun n65 () Int)
(assert (= n65 (+ n14 n64)))
(declare-fun n66 () Int)
(assert (= n66 (* n15 n21)))
(assert (>= n62 n65))
(assert (>= n63 n66))
(declare-fun n67 () Int)
(assert (= n67 (* n11 n4)))
(declare-fun n68 () Int)
(assert (= n68 (+ n10 n67)))
(declare-fun n69 () Int)
(assert (= n69 (* n11 n5)))
(declare-fun n70 () Int)
(assert (= n70 (* n24 n4)))
(declare-fun n71 () Int)
(assert (= n71 (+ n23 n70)))
(declare-fun n72 () Int)
(assert (= n72 (* n24 n5)))
(assert (>= n68 n71))
(assert (>= n69 n72))
(declare-fun n73 () Int)
(assert (= n73 (* n1 n14)))
(declare-fun n74 () Int)
(assert (= n74 (+ n0 n73)))
(declare-fun n75 () Int)
(assert (= n75 (* n1 n15)))
(declare-fun n76 () Int)
(assert (= n76 (* n15 n0)))
(declare-fun n77 () Int)
(assert (= n77 (+ n14 n76)))
(declare-fun n78 () Int)
(assert (= n78 (* n15 n1)))
(assert (>= n74 n77))
(assert (>= n75 n78))
(declare-fun n79 () Int)
(assert (= n79 (* n3 n14)))
(declare-fun n80 () Int)
(assert (= n80 (+ n2 n79)))
(declare-fun n81 () Int)
(assert (= n81 (* n3 n15)))
(assert (>= n80 n23))
(assert (>= n81 n24))
(declare-fun n82 () Int)
(assert (= n82 (* n7 n14)))
(declare-fun n83 () Int)
(assert (= n83 (+ n6 n82)))
(declare-fun n84 () Int)
(assert (= n84 (* n7 n15)))
(declare-fun n85 () Int)
(assert (= n85 (* n13 n6)))
(declare-fun n86 () Int)
(assert (= n86 (+ n12 n85)))
(declare-fun n87 () Int)
(assert (= n87 (* n13 n7)))
(assert (>= n83 n86))
(assert (>= n84 n87))
(declare-fun n88 () Int)
(assert (= n88 (* n1 n12)))
(declare-fun n89 () Int)
(assert (= n89 (+ n0 n88)))
(declare-fun n90 () Int)
(assert (= n90 (* n1 n13)))
(assert (>= n89 n17))
(assert (>= n90 n18))
(declare-fun n91 () Int)
(assert (= n91 (* n3 n12)))
(declare-fun n92 () Int)
(assert (= n92 (+ n2 n91)))
(declare-fun n93 () Int)
(assert (= n93 (* n3 n13)))
(declare-fun n94 () Int)
(assert (= n94 (* n13 n2)))
(declare-fun n95 () Int)
(assert (= n95 (+ n12 n94)))
(declare-fun n96 () Int)
(assert (= n96 (* n13 n3)))
(assert (>= n92 n95))
(assert (>= n93 n96))
(declare-fun n97 () Int)
(assert (= n97 (* n5 n17)))
(declare-fun n98 () Int)
(assert (= n98 (+ n4 n97)))
(declare-fun n99 () Int)
(assert (= n99 (* n5 n18)))
(declare-fun n100 () Int)
(assert (= n100 (* n21 n8)))
(declare-fun n101 () Int)
(assert (= n101 (+ n20 n100)))
(declare-fun n102 () Int)
(assert (= n102 (* n21 n9)))
(assert (>= n98 n101))
(assert (>= n99 n102))
(assert (or (> n26 n29) (> n32 n35) (> n38 n41) (> n44 n47) (> n50 n53) (> n56 n59) (> n62 n65) (> n68 n71) (> n74 n77) (> n80 n23) (> n83 n86) (> n89 n17) (> n92 n95) (> n98 n101)))
(assert (<= n0 10))
(assert (<= n1 10))
(assert (<= n10 10))
(assert (<= 0 n100))
(assert (<= n100 10))
(assert (<= 0 n101))
(assert (<= n101 10))
(assert (<= 0 n102))
(assert (<= n102 10))
(assert (<= n11 10))
(assert (<= n12 10))
(assert (<= n13 10))
(assert (<= n14 10))
(assert (<= n15 10))
(assert (<= 0 n16))
(assert (<= n16 10))
(assert (<= 0 n17))
(assert (<= n17 10))
(assert (<= 0 n18))
(assert (<= n18 10))
(assert (<= 0 n19))
(assert (<= n19 10))
(assert (<= n2 10))
(assert (<= 0 n20))
(assert (<= n20 10))
(assert (<= 0 n21))
(assert (<= n21 10))
(assert (<= 0 n22))
(assert (<= n22 10))
(assert (<= 0 n23))
(assert (<= n23 10))
(assert (<= 0 n24))
(assert (<= n24 10))
(assert (<= 0 n25))
(assert (<= n25 10))
(assert (<= 0 n26))
(assert (<= n26 10))
(assert (<= 0 n27))
(assert (<= n27 10))
(assert (<= 0 n28))
(assert (<= n28 10))
(assert (<= 0 n29))
(assert (<= n29 10))
(assert (<= n3 10))
(assert (<= 0 n30))
(assert (<= n30 10))
(assert (<= 0 n31))
(assert (<= n31 10))
(assert (<= 0 n32))
(assert (<= n32 10))
(assert (<= 0 n33))
(assert (<= n33 10))
(assert (<= 0 n34))
(assert (<= n34 10))
(assert (<= 0 n35))
(assert (<= n35 10))
(assert (<= 0 n36))
(assert (<= n36 10))
(assert (<= 0 n37))
(assert (<= n37 10))
(assert (<= 0 n38))
(assert (<= n38 10))
(assert (<= 0 n39))
(assert (<= n39 10))
(assert (<= n4 10))
(assert (<= 0 n40))
(assert (<= n40 10))
(assert (<= 0 n41))
(assert (<= n41 10))
(assert (<= 0 n42))
(assert (<= n42 10))
(assert (<= 0 n43))
(assert (<= n43 10))
(assert (<= 0 n44))
(assert (<= n44 10))
(assert (<= 0 n45))
(assert (<= n45 10))
(assert (<= 0 n46))
(assert (<= n46 10))
(assert (<= 0 n47))
(assert (<= n47 10))
(assert (<= 0 n48))
(assert (<= n48 10))
(assert (<= 0 n49))
(assert (<= n49 10))
(assert (<= n5 10))
(assert (<= 0 n50))
(assert (<= n50 10))
(assert (<= 0 n51))
(assert (<= n51 10))
(assert (<= 0 n52))
(assert (<= n52 10))
(assert (<= 0 n53))
(assert (<= n53 10))
(assert (<= 0 n54))
(assert (<= n54 10))
(assert (<= 0 n55))
(assert (<= n55 10))
(assert (<= 0 n56))
(assert (<= n56 10))
(assert (<= 0 n57))
(assert (<= n57 10))
(assert (<= 0 n58))
(assert (<= n58 10))
(assert (<= 0 n59))
(assert (<= n59 10))
(assert (<= n6 10))
(assert (<= 0 n60))
(assert (<= n60 10))
(assert (<= 0 n61))
(assert (<= n61 10))
(assert (<= 0 n62))
(assert (<= n62 10))
(assert (<= 0 n63))
(assert (<= n63 10))
(assert (<= 0 n64))
(assert (<= n64 10))
(assert (<= 0 n65))
(assert (<= n65 10))
(assert (<= 0 n66))
(assert (<= n66 10))
(assert (<= 0 n67))
(assert (<= n67 10))
(assert (<= 0 n68))
(assert (<= n68 10))
(assert (<= 0 n69))
(assert (<= n69 10))
(assert (<= n7 10))
(assert (<= 0 n70))
(assert (<= n70 10))
(assert (<= 0 n71))
(assert (<= n71 10))
(assert (<= 0 n72))
(assert (<= n72 10))
(assert (<= 0 n73))
(assert (<= n73 10))
(assert (<= 0 n74))
(assert (<= n74 10))
(assert (<= 0 n75))
(assert (<= n75 10))
(assert (<= 0 n76))
(assert (<= n76 10))
(assert (<= 0 n77))
(assert (<= n77 10))
(assert (<= 0 n78))
(assert (<= n78 10))
(assert (<= 0 n79))
(assert (<= n79 10))
(assert (<= n8 10))
(assert (<= 0 n80))
(assert (<= n80 10))
(assert (<= 0 n81))
(assert (<= n81 10))
(assert (<= 0 n82))
(assert (<= n82 10))
(assert (<= 0 n83))
(assert (<= n83 10))
(assert (<= 0 n84))
(assert (<= n84 10))
(assert (<= 0 n85))
(assert (<= n85 10))
(assert (<= 0 n86))
(assert (<= n86 10))
(assert (<= 0 n87))
(assert (<= n87 10))
(assert (<= 0 n88))
(assert (<= n88 10))
(assert (<= 0 n89))
(assert (<= n89 10))
(assert (<= n9 10))
(assert (<= 0 n90))
(assert (<= n90 10))
(assert (<= 0 n91))
(assert (<= n91 10))
(assert (<= 0 n92))
(assert (<= n92 10))
(assert (<= 0 n93))
(assert (<= n93 10))
(assert (<= 0 n94))
(assert (<= n94 10))
(assert (<= 0 n95))
(assert (<= n95 10))
(assert (<= 0 n96))
(assert (<= n96 10))
(assert (<= 0 n97))
(assert (<= n97 10))
(assert (<= 0 n98))
(assert (<= n98 10))
(assert (<= 0 n99))
(assert (<= n99 10))
(check-sat)
(exit)
